objective value:                                    0
x_0_1_4                                             1 	(obj:0)
x_0_2_9                                             1 	(obj:0)
x_0_3_2                                             1 	(obj:0)
x_0_4_1                                             1 	(obj:0)
x_0_5_15                            0.999999999999997 	(obj:0)
x_0_6_7                                             1 	(obj:0)
x_0_7_17                            0.999999999999996 	(obj:0)
x_0_8_12                            0.999999999999997 	(obj:0)
x_0_9_10                                            1 	(obj:0)
x_1_0_16                                            1 	(obj:0)
x_1_2_11                            0.999999999999998 	(obj:0)
x_1_3_0                             0.999999999999999 	(obj:0)
x_1_4_5                             0.999999999999998 	(obj:0)
x_1_5_2                                             1 	(obj:0)
x_1_6_15                            0.999999999999995 	(obj:0)
x_1_7_9                                             1 	(obj:0)
x_1_8_7                             0.999999999999997 	(obj:0)
x_1_9_12                            0.999999999999998 	(obj:0)
x_2_0_3                                             1 	(obj:0)
x_2_1_1                             0.999999999999998 	(obj:0)
x_2_3_13                            0.999999999999996 	(obj:0)
x_2_4_14                            0.999999999999996 	(obj:0)
x_2_5_10                            0.999999999999995 	(obj:0)
x_2_6_16                            0.999999999999999 	(obj:0)
x_2_7_6                             0.999999999999999 	(obj:0)
x_2_8_5                             0.999999999999996 	(obj:0)
x_2_9_8                                             1 	(obj:0)
x_3_0_14                            0.999999999999993 	(obj:0)
x_3_1_10                                            1 	(obj:0)
x_3_2_7                             0.999999999999998 	(obj:0)
x_3_4_3                                             1 	(obj:0)
x_3_5_12                            0.999999999999994 	(obj:0)
x_3_6_5                             0.999999999999999 	(obj:0)
x_3_7_1                             0.999999999999999 	(obj:0)
x_3_8_8                             0.999999999999999 	(obj:0)
x_3_9_16                             1.00000000000001 	(obj:0)
x_4_0_11                            0.999999999999999 	(obj:0)
x_4_1_17                            0.999999999999998 	(obj:0)
x_4_2_2                                             1 	(obj:0)
x_4_3_9                             0.999999999999999 	(obj:0)
x_4_5_4                                             1 	(obj:0)
x_4_6_12                            0.999999999999991 	(obj:0)
x_4_7_15                            0.999999999999996 	(obj:0)
x_4_8_0                             0.999999999999998 	(obj:0)
x_4_9_7                                             1 	(obj:0)
x_5_0_8                             0.999999999999999 	(obj:0)
x_5_1_14                            0.999999999999998 	(obj:0)
x_5_2_0                                             1 	(obj:0)
x_5_3_6                                             1 	(obj:0)
x_5_4_16                                            1 	(obj:0)
x_5_6_11                            0.999999999999995 	(obj:0)
x_5_7_13                            0.999999999999998 	(obj:0)
x_5_8_3                                             1 	(obj:0)
x_5_9_5                                             1 	(obj:0)
x_6_0_13                            0.999999999999993 	(obj:0)
x_6_1_8                             0.999999999999998 	(obj:0)
x_6_2_4                             0.999999999999995 	(obj:0)
x_6_3_17                                            1 	(obj:0)
x_6_4_6                             0.999999999999998 	(obj:0)
x_6_5_1                             0.999999999999999 	(obj:0)
x_6_7_10                            0.999999999999994 	(obj:0)
x_6_8_14                            0.999999999999993 	(obj:0)
x_6_9_3                             0.999999999999999 	(obj:0)
x_7_0_5                                             1 	(obj:0)
x_7_1_3                                             1 	(obj:0)
x_7_2_12                            0.999999999999996 	(obj:0)
x_7_3_11                                            1 	(obj:0)
x_7_4_8                             0.999999999999999 	(obj:0)
x_7_5_7                                             1 	(obj:0)
x_7_6_0                             0.999999999999998 	(obj:0)
x_7_8_16                            0.999999999999999 	(obj:0)
x_7_9_14                                            1 	(obj:0)
x_8_0_6                                             1 	(obj:0)
x_8_1_13                            0.999999999999993 	(obj:0)
x_8_2_17                            0.999999999999993 	(obj:0)
x_8_3_15                            0.999999999999993 	(obj:0)
x_8_4_10                            0.999999999999999 	(obj:0)
x_8_5_9                                             1 	(obj:0)
x_8_6_2                                             1 	(obj:0)
x_8_7_4                             0.999999999999999 	(obj:0)
x_8_9_1                                             1 	(obj:0)
x_9_0_0                                             1 	(obj:0)
x_9_1_6                             0.999999999999999 	(obj:0)
x_9_2_15                            0.999999999999996 	(obj:0)
x_9_3_4                                             1 	(obj:0)
x_9_4_13                            0.999999999999998 	(obj:0)
x_9_5_17                                            1 	(obj:0)
x_9_6_9                                             1 	(obj:0)
x_9_7_2                                             1 	(obj:0)
x_9_8_11                            0.999999999999999 	(obj:0)
y_0_2                                               1 	(obj:0)
y_0_4                                               1 	(obj:0)
y_0_10                                              1 	(obj:0)
y_0_12                              0.999999999999999 	(obj:0)
y_1_0                               0.999999999999999 	(obj:0)
y_1_2                                               1 	(obj:0)
y_1_12                              0.999999999999996 	(obj:0)
y_1_16                                              1 	(obj:0)
y_2_6                               0.999999999999998 	(obj:0)
y_2_8                                               1 	(obj:0)
y_2_10                              0.999999999999999 	(obj:0)
y_2_14                              0.999999999999996 	(obj:0)
y_2_16                              0.999999999999994 	(obj:0)
y_3_8                                               1 	(obj:0)
y_3_10                                              1 	(obj:0)
y_3_12                                              1 	(obj:0)
y_3_14                                              1 	(obj:0)
y_3_16                                              1 	(obj:0)
y_4_0                                               1 	(obj:0)
y_4_2                                               1 	(obj:0)
y_4_4                                               1 	(obj:0)
y_4_12                              0.999999999999993 	(obj:0)
y_5_0                                               1 	(obj:0)
y_5_6                                               1 	(obj:0)
y_5_8                                               1 	(obj:0)
y_5_14                              0.999999999999996 	(obj:0)
y_5_16                                              1 	(obj:0)
y_6_4                               0.999999999999999 	(obj:0)
y_6_6                                               1 	(obj:0)
y_6_8                                               1 	(obj:0)
y_6_10                              0.999999999999995 	(obj:0)
y_6_14                                              1 	(obj:0)
y_7_0                               0.999999999999999 	(obj:0)
y_7_8                               0.999999999999999 	(obj:0)
y_7_12                              0.999999999999999 	(obj:0)
y_7_14                                              1 	(obj:0)
y_7_16                                              1 	(obj:0)
y_8_2                                               1 	(obj:0)
y_8_4                               0.999999999999999 	(obj:0)
y_8_6                                               1 	(obj:0)
y_8_10                                              1 	(obj:0)
y_9_0                                               1 	(obj:0)
y_9_2                                               1 	(obj:0)
y_9_4                                               1 	(obj:0)
y_9_6                               0.999999999999999 	(obj:0)
